n = 40;
lu = [|278, 773
      |-1470, 546
      |-596, -444
      |1009, 1122
      |-755, 1121
      |-1075, 1521
      |-465, -173
      |205, 1444
      |-1483, 560
      |-1069, 1417
      |-1358, 1026
      |-773, 937
      |286, 1296
      |-1383, -877
      |-318, 877
      |-1135, -575
      |-1007, -269
      |501, 1600
      |543, 1188
      |-1201, 68
      |-1399, -307
      |1393, 1498
      |-670, -225
      |-970, 1421
      |-934, -330
      |-336, 531
      |-407, 1248
      |-953, 291
      |-738, 800
      |175, 415
      |-1337, 514
      |-901, 790
      |-761, 895
      |-1564, 797
      |-1238, 313
      |-358, 904
      |-1141, -818
      |-614, 289
      |-1194, 258
      |330, 1015|];
